; benchmark generated from python API
(set-info :status unknown)
(declare-fun strlen_72_64 () (_ BitVec 64))
(declare-fun args_0_8 () (_ BitVec 8))
(declare-fun strlen_75_64 () (_ BitVec 64))
(declare-fun args_1_8 () (_ BitVec 8))
(declare-fun sigaction_oldact_171_1216 () (_ BitVec 1216))
(declare-fun sigaction_oldact_176_1216 () (_ BitVec 1216))
(declare-fun sigaction_oldact_186_1216 () (_ BitVec 1216))
(declare-fun sigaction_oldact_200_1216 () (_ BitVec 1216))
(declare-fun sigaction_oldact_230_1216 () (_ BitVec 1216))
(declare-fun sigaction_oldact_285_1216 () (_ BitVec 1216))
(declare-fun sigaction_oldact_384_1216 () (_ BitVec 1216))
(declare-fun sigaction_oldact_612_1216 () (_ BitVec 1216))
(assert
 (let (($x351 (= (_ bv1 64) strlen_72_64)))
 (not $x351)))
(assert
 (let ((?x82 (bvadd (_ bv576460752303357824 64) strlen_72_64)))
 (let (($x69 (= (_ bv0 8) args_0_8)))
 (let ((?x46 (ite $x69 (_ bv576460752303357824 64) (_ bv576460752303357825 64))))
 (= ?x46 ?x82)))))
(assert
 (let (($x347 (= (_ bv0 8) args_1_8)))
 (let ((?x355 (ite $x347 (_ bv576460752303357826 64) (_ bv576460752303357827 64))))
 (let ((?x356 (bvsub ?x355 (_ bv576460752303357826 64))))
 (= ?x356 strlen_75_64)))))
(assert
 (let ((?x1831 ((_ extract 127 120) sigaction_oldact_171_1216)))
 (let ((?x2319 (bvand ?x1831 (_ bv4 8))))
 (and (distinct (_ bv0 8) ?x2319) true))))
(assert
 (let ((?x2276 ((_ extract 127 120) sigaction_oldact_176_1216)))
 (let ((?x2398 (bvand ?x2276 (_ bv4 8))))
 (= (_ bv0 8) ?x2398))))
(assert
 (let ((?x2788 ((_ extract 127 120) sigaction_oldact_186_1216)))
 (let ((?x2813 (bvand ?x2788 (_ bv4 8))))
 (= (_ bv0 8) ?x2813))))
(assert
 (let ((?x3598 ((_ extract 127 120) sigaction_oldact_200_1216)))
 (let ((?x3623 (bvand ?x3598 (_ bv4 8))))
 (and (distinct (_ bv0 8) ?x3623) true))))
(assert
 (let ((?x5633 ((_ extract 127 120) sigaction_oldact_230_1216)))
 (let ((?x5643 (bvand ?x5633 (_ bv4 8))))
 (= (_ bv0 8) ?x5643))))
(assert
 (let ((?x9129 ((_ extract 127 120) sigaction_oldact_285_1216)))
 (let ((?x9154 (bvand ?x9129 (_ bv4 8))))
 (= (_ bv0 8) ?x9154))))
(assert
 (let ((?x15809 ((_ extract 127 120) sigaction_oldact_384_1216)))
 (let ((?x15834 (bvand ?x15809 (_ bv4 8))))
 (and (distinct (_ bv0 8) ?x15834) true))))
(assert
 (let ((?x32316 ((_ extract 127 120) sigaction_oldact_612_1216)))
 (let ((?x32326 (bvand ?x32316 (_ bv4 8))))
 (= (_ bv0 8) ?x32326))))
(minimize sigaction_oldact_285_1216)
(maximize sigaction_oldact_176_1216)
(maximize strlen_75_64)
(minimize args_0_8)
(minimize sigaction_oldact_171_1216)
(maximize args_0_8)
(minimize sigaction_oldact_612_1216)
(maximize sigaction_oldact_230_1216)
(minimize sigaction_oldact_176_1216)
(maximize args_1_8)
(maximize sigaction_oldact_186_1216)
(maximize sigaction_oldact_612_1216)
(minimize sigaction_oldact_200_1216)
(minimize sigaction_oldact_384_1216)
(check-sat)
(get-objectives)
